LatticeConstant 1.0 Ang
%block LatticeVectors
 25.00000000 0.00000000 0.00000000
 0.00000000 25.00000000 0.00000000
 0.00000000 0.00000000 137.11136753
%endblock LatticeVectors

NumberOfAtoms 180
AtomicCoordinatesFormat Ang
%block AtomicCoordinatesAndAtomicSpecies
  12.46310725  14.48731581   0.00000000 1 #   1: Se
  10.76397939  11.53846657   0.00000000 1 #   2: Se
  14.20679708  11.52345807   0.00000000 1 #   3: Se
  12.48750147  12.50893676   1.56750000 2 #   4: V
  12.46310725  14.48731581   3.13500000 1 #   5: Se
  10.76397939  11.53846657   3.13500000 1 #   6: Se
  14.20679708  11.52345807   3.13500000 1 #   7: Se
  12.48750147  12.50893676   4.70250000 2 #   8: V
  12.46310725  14.48731581   6.27000000 1 #   9: Se
  10.76397939  11.53846657   6.27000000 1 #  10: Se
  14.20679708  11.52345807   6.27000000 1 #  11: Se
  12.48750147  12.50893676   7.83750000 2 #  12: V
  12.46310725  14.48731581   9.40500000 1 #  13: Se
  10.76397939  11.53846657   9.40500000 1 #  14: Se
  14.20679708  11.52345807   9.40500000 1 #  15: Se
  12.48750147  12.50893676  10.97250000 2 #  16: V
  12.46310725  14.48731581  12.54000000 1 #  17: Se
  10.76397939  11.53846657  12.54000000 1 #  18: Se
  14.20679708  11.52345807  12.54000000 1 #  19: Se
  12.48750147  12.50893676  14.10750000 2 #  20: V
  12.46310725  14.48731581  15.67500000 1 #  21: Se
  10.76397939  11.53846657  15.67500000 1 #  22: Se
  14.20679708  11.52345807  15.67500000 1 #  23: Se
  12.48750147  12.50893676  17.24250000 2 #  24: V
  12.46310725  14.48731581  18.81000000 1 #  25: Se
  10.76397939  11.53846657  18.81000000 1 #  26: Se
  14.20679708  11.52345807  18.81000000 1 #  27: Se
  12.48750147  12.50893676  20.37750000 2 #  28: V
  12.46310725  14.48731581  21.94500000 1 #  29: Se
  10.76397939  11.53846657  21.94500000 1 #  30: Se
  14.20679708  11.52345807  21.94500000 1 #  31: Se
  12.48750147  12.50893676  23.51250000 2 #  32: V
  12.46310725  14.48731581  25.08000000 1 #  33: Se
  10.76397939  11.53846657  25.08000000 1 #  34: Se
  14.20679708  11.52345807  25.08000000 1 #  35: Se
  12.48750147  12.50893676  26.64750000 2 #  36: V
  12.46310725  14.48731581  28.21500000 1 #  37: Se
  10.76397939  11.53846657  28.21500000 1 #  38: Se
  14.20679708  11.52345807  28.21500000 1 #  39: Se
  12.48750147  12.50893676  29.78250000 2 #  40: V
  12.46310725  14.48731581  31.35000000 1 #  41: Se
  10.76397939  11.53846657  31.35000000 1 #  42: Se
  14.20679708  11.52345807  31.35000000 1 #  43: Se
  12.48750147  12.50893676  32.91750000 2 #  44: V
  12.46310725  14.48731581  34.48500000 1 #  45: Se
  10.76397939  11.53846657  34.48500000 1 #  46: Se
  14.20679708  11.52345807  34.48500000 1 #  47: Se
  12.48750147  12.50893676  36.05250000 2 #  48: V
  12.46310725  14.48731581  37.62000000 1 #  49: Se
  10.76397939  11.53846657  37.62000000 1 #  50: Se
  14.20679708  11.52345807  37.62000000 1 #  51: Se
  12.48750147  12.50893676  39.18750000 2 #  52: V
  12.46310725  14.48731581  40.75500000 1 #  53: Se
  10.76397939  11.53846657  40.75500000 1 #  54: Se
  14.20679708  11.52345807  40.75500000 1 #  55: Se
  12.48750147  12.50893676  42.32250000 2 #  56: V
  12.46310725  14.48731581  43.89000000 1 #  57: Se
  10.76397939  11.53846657  43.89000000 1 #  58: Se
  14.20679708  11.52345807  43.89000000 1 #  59: Se
  12.48750147  12.50893676  45.45750000 2 #  60: V
  12.46310725  14.48731581  47.02500000 1 #  61: Se
  10.76397939  11.53846657  47.02500000 1 #  62: Se
  14.20679708  11.52345807  47.02500000 1 #  63: Se
  12.48750147  12.50893676  48.59250000 2 #  64: V
  12.46310725  14.48731581  50.16000000 1 #  65: Se
  10.76397939  11.53846657  50.16000000 1 #  66: Se
  14.20679708  11.52345807  50.16000000 1 #  67: Se
  12.48750147  12.50893676  51.72750000 2 #  68: V
  12.46310725  14.48731581  53.29505681 1 #  69: Se
  10.76397939  11.53846657  53.29492762 1 #  70: Se
  14.20679708  11.52345807  53.29467130 1 #  71: Se
  12.48750147  12.50893676  54.87045298 2 #  72: V
  12.49949299  14.49194418  56.33886890 1 #  73: Se
  10.77789125  11.49721707  56.33750637 1 #  74: Se
  14.21992477  11.51321813  56.32508216 1 #  75: Se
  12.48762775  12.50332745  58.01936647 2 #  76: V
  12.49848231  14.53168201  59.34864562 1 #  77: Se
  10.73596461  11.47458158  59.34887772 1 #  78: Se
  14.25602334  11.47214491  59.31740086 1 #  79: Se
  12.52387736  12.48061132  61.13893474 2 #  80: V
  12.55595029  14.57701790  62.28334461 1 #  81: Se
  10.73047928  11.38907949  62.28134196 1 #  82: Se
  14.37434597  11.42574896  62.28799557 1 #  83: Se
  12.65701555  14.80715553  65.68778399 1 #  84: Se
  10.56127594  11.21076712  65.68146464 1 #  85: Se
  14.50774161  11.32373611  65.69138293 1 #  86: Se
  12.49498360  12.48993631  66.84294408 3 #  87: Hf
  12.02526837  14.71396083  68.55490461 1 #  88: Se
  10.33950746  11.77249168  68.55539784 1 #  89: Se
  14.44698011  11.34071599  68.55533908 1 #  90: Se
  12.49511933  12.48988802  70.26796498 3 #  91: Hf
  12.65724010  14.80720308  71.42347844 1 #  92: Se
  10.56124279  11.21129115  71.43007036 1 #  93: Se
  14.50732670  11.32396856  71.42084564 1 #  94: Se
  12.55443378  14.57767960  74.82810829 1 #  95: Se
  10.72996473  11.38894828  74.83077301 1 #  96: Se
  14.37365722  11.42751300  74.82385319 1 #  97: Se
  12.52273311  12.48177274  75.97184811 2 #  98: V
  12.49761762  14.53336993  77.76240043 1 #  99: Se
  10.73445440  11.47602270  77.76296321 1 # 100: Se
  14.25534742  11.47302957  77.79369905 1 # 101: Se
  12.48696478  12.50459381  79.09120178 2 # 102: V
  12.49913643  14.49267001  80.77228258 1 # 103: Se
  10.77763241  11.49700726  80.77389837 1 # 104: Se
  14.21981553  11.51449503  80.78555858 1 # 105: Se
  12.48711210  12.50930535  82.24023393 2 # 106: V
  12.48733499  14.36755242  64.01216409 4 # 107: H
  10.86181916  11.58579947  64.00432451 4 # 108: H
  14.09777138  11.58030288  63.90089029 4 # 109: H
  12.48733164  14.36846629  73.09692179 4 # 110: H
  10.86219393  11.58406170  73.10670433 4 # 111: H
  14.09980350  11.58459574  73.20927970 4 # 112: H
  12.46310725  14.48731581  83.80773393 1 # 113: Se
  10.76397939  11.53846657  83.80773393 1 # 114: Se
  14.20679708  11.52345807  83.80773393 1 # 115: Se
  12.48750147  12.50893676  85.37523393 2 # 116: V
  12.46310725  14.48731581  86.94273393 1 # 117: Se
  10.76397939  11.53846657  86.94273393 1 # 118: Se
  14.20679708  11.52345807  86.94273393 1 # 119: Se
  12.48750147  12.50893676  88.51023393 2 # 120: V
  12.46310725  14.48731581  90.07773393 1 # 121: Se
  10.76397939  11.53846657  90.07773393 1 # 122: Se
  14.20679708  11.52345807  90.07773393 1 # 123: Se
  12.48750147  12.50893676  91.64523393 2 # 124: V
  12.46310725  14.48731581  93.21273393 1 # 125: Se
  10.76397939  11.53846657  93.21273393 1 # 126: Se
  14.20679708  11.52345807  93.21273393 1 # 127: Se
  12.48750147  12.50893676  94.78023393 2 # 128: V
  12.46310725  14.48731581  96.34773393 1 # 129: Se
  10.76397939  11.53846657  96.34773393 1 # 130: Se
  14.20679708  11.52345807  96.34773393 1 # 131: Se
  12.48750147  12.50893676  97.91523393 2 # 132: V
  12.46310725  14.48731581  99.48273393 1 # 133: Se
  10.76397939  11.53846657  99.48273393 1 # 134: Se
  14.20679708  11.52345807  99.48273393 1 # 135: Se
  12.48750147  12.50893676 101.05023393 2 # 136: V
  12.46310725  14.48731581 102.61773393 1 # 137: Se
  10.76397939  11.53846657 102.61773393 1 # 138: Se
  14.20679708  11.52345807 102.61773393 1 # 139: Se
  12.48750147  12.50893676 104.18523393 2 # 140: V
  12.46310725  14.48731581 105.75273393 1 # 141: Se
  10.76397939  11.53846657 105.75273393 1 # 142: Se
  14.20679708  11.52345807 105.75273393 1 # 143: Se
  12.48750147  12.50893676 107.32023393 2 # 144: V
  12.46310725  14.48731581 108.88773393 1 # 145: Se
  10.76397939  11.53846657 108.88773393 1 # 146: Se
  14.20679708  11.52345807 108.88773393 1 # 147: Se
  12.48750147  12.50893676 110.45523393 2 # 148: V
  12.46310725  14.48731581 112.02273393 1 # 149: Se
  10.76397939  11.53846657 112.02273393 1 # 150: Se
  14.20679708  11.52345807 112.02273393 1 # 151: Se
  12.48750147  12.50893676 113.59023393 2 # 152: V
  12.46310725  14.48731581 115.15773393 1 # 153: Se
  10.76397939  11.53846657 115.15773393 1 # 154: Se
  14.20679708  11.52345807 115.15773393 1 # 155: Se
  12.48750147  12.50893676 116.72523393 2 # 156: V
  12.46310725  14.48731581 118.29273393 1 # 157: Se
  10.76397939  11.53846657 118.29273393 1 # 158: Se
  14.20679708  11.52345807 118.29273393 1 # 159: Se
  12.48750147  12.50893676 119.86023393 2 # 160: V
  12.46310725  14.48731581 121.42773393 1 # 161: Se
  10.76397939  11.53846657 121.42773393 1 # 162: Se
  14.20679708  11.52345807 121.42773393 1 # 163: Se
  12.48750147  12.50893676 122.99523393 2 # 164: V
  12.46310725  14.48731581 124.56273393 1 # 165: Se
  10.76397939  11.53846657 124.56273393 1 # 166: Se
  14.20679708  11.52345807 124.56273393 1 # 167: Se
  12.48750147  12.50893676 126.13023393 2 # 168: V
  12.46310725  14.48731581 127.69773393 1 # 169: Se
  10.76397939  11.53846657 127.69773393 1 # 170: Se
  14.20679708  11.52345807 127.69773393 1 # 171: Se
  12.48750147  12.50893676 129.26523393 2 # 172: V
  12.46310725  14.48731581 130.83273393 1 # 173: Se
  10.76397939  11.53846657 130.83273393 1 # 174: Se
  14.20679708  11.52345807 130.83273393 1 # 175: Se
  12.48750147  12.50893676 132.40023393 2 # 176: V
  12.46310725  14.48731581 133.96773393 1 # 177: Se
  10.76397939  11.53846657 133.96773393 1 # 178: Se
  14.20679708  11.52345807 133.96773393 1 # 179: Se
  12.48750147  12.50893676 135.53523393 2 # 180: V
%endblock AtomicCoordinatesAndAtomicSpecies

NumberOfSpecies 4
%block ChemicalSpeciesLabel
 1 34 Se
 2 23 V
 3 72 Hf
 4 1 H
%endblock ChemicalSpeciesLabel
